\ENCODING=ISO-8859-1
\Problem name: TSP

Minimize
 obj: 509 x(1,2) + 501 x(1,3) + 312 x(1,4) + 1019 x(1,5) + 736 x(1,6)
      + 656 x(1,7) + 60 x(1,8) + 1039 x(1,9) + 726 x(1,10) + 2314 x(1,11)
      + 479 x(1,12) + 448 x(1,13) + 479 x(1,14) + 619 x(1,15) + 150 x(1,16)
      + 126 x(2,3) + 474 x(2,4) + 1526 x(2,5) + 1226 x(2,6) + 1133 x(2,7)
      + 532 x(2,8) + 1449 x(2,9) + 1122 x(2,10) + 2789 x(2,11) + 958 x(2,12)
      + 941 x(2,13) + 978 x(2,14) + 1127 x(2,15) + 542 x(2,16) + 541 x(3,4)
      + 1516 x(3,5) + 1184 x(3,6) + 1084 x(3,7) + 536 x(3,8) + 1371 x(3,9)
      + 1045 x(3,10) + 2728 x(3,11) + 913 x(3,12) + 904 x(3,13) + 946 x(3,14)
      + 1115 x(3,15) + 499 x(3,16) + 1157 x(4,5) + 980 x(4,6) + 919 x(4,7)
      + 271 x(4,8) + 1333 x(4,9) + 1029 x(4,10) + 2553 x(4,11) + 751 x(4,12)
      + 704 x(4,13) + 720 x(4,14) + 783 x(4,15) + 455 x(4,16) + 478 x(5,6)
      + 583 x(5,7) + 996 x(5,8) + 858 x(5,9) + 855 x(5,10) + 1504 x(5,11)
      + 677 x(5,12) + 651 x(5,13) + 600 x(5,14) + 401 x(5,15) + 1033 x(5,16)
      + 115 x(6,7) + 740 x(6,8) + 470 x(6,9) + 379 x(6,10) + 1581 x(6,11)
      + 271 x(6,12) + 289 x(6,13) + 261 x(6,14) + 308 x(6,15) + 687 x(6,16)
      + 667 x(7,8) + 455 x(7,9) + 288 x(7,10) + 1661 x(7,11) + 177 x(7,12)
      + 216 x(7,13) + 207 x(7,14) + 343 x(7,15) + 592 x(7,16) + 1066 x(8,9)
      + 759 x(8,10) + 2320 x(8,11) + 493 x(8,12) + 454 x(8,13) + 479 x(8,14)
      + 598 x(8,15) + 206 x(8,16) + 328 x(9,10) + 1387 x(9,11) + 591 x(9,12)
      + 650 x(9,13) + 656 x(9,14) + 776 x(9,15) + 933 x(9,16) + 1697 x(10,11)
      + 333 x(10,12) + 400 x(10,13) + 427 x(10,14) + 622 x(10,15)
      + 610 x(10,16) + 1838 x(11,12) + 1868 x(11,13) + 1841 x(11,14)
      + 1789 x(11,15) + 2248 x(11,16) + 68 x(12,13) + 105 x(12,14)
      + 336 x(12,15) + 417 x(12,16) + 52 x(13,14) + 287 x(13,15) + 406 x(13,16)
      + 237 x(14,15) + 449 x(14,16) + 636 x(15,16)
Subject To
 degree(1):  x(1,2) + x(1,3) + x(1,4) + x(1,5) + x(1,6) + x(1,7) + x(1,8)
             + x(1,9) + x(1,10) + x(1,11) + x(1,12) + x(1,13) + x(1,14)
             + x(1,15) + x(1,16)  = 2
 degree(2):  x(1,2) + x(2,3) + x(2,4) + x(2,5) + x(2,6) + x(2,7) + x(2,8)
             + x(2,9) + x(2,10) + x(2,11) + x(2,12) + x(2,13) + x(2,14)
             + x(2,15) + x(2,16)  = 2
 degree(3):  x(1,3) + x(2,3) + x(3,4) + x(3,5) + x(3,6) + x(3,7) + x(3,8)
             + x(3,9) + x(3,10) + x(3,11) + x(3,12) + x(3,13) + x(3,14)
             + x(3,15) + x(3,16)  = 2
 degree(4):  x(1,4) + x(2,4) + x(3,4) + x(4,5) + x(4,6) + x(4,7) + x(4,8)
             + x(4,9) + x(4,10) + x(4,11) + x(4,12) + x(4,13) + x(4,14)
             + x(4,15) + x(4,16)  = 2
 degree(5):  x(1,5) + x(2,5) + x(3,5) + x(4,5) + x(5,6) + x(5,7) + x(5,8)
             + x(5,9) + x(5,10) + x(5,11) + x(5,12) + x(5,13) + x(5,14)
             + x(5,15) + x(5,16)  = 2
 degree(6):  x(1,6) + x(2,6) + x(3,6) + x(4,6) + x(5,6) + x(6,7) + x(6,8)
             + x(6,9) + x(6,10) + x(6,11) + x(6,12) + x(6,13) + x(6,14)
             + x(6,15) + x(6,16)  = 2
 degree(7):  x(1,7) + x(2,7) + x(3,7) + x(4,7) + x(5,7) + x(6,7) + x(7,8)
             + x(7,9) + x(7,10) + x(7,11) + x(7,12) + x(7,13) + x(7,14)
             + x(7,15) + x(7,16)  = 2
 degree(8):  x(1,8) + x(2,8) + x(3,8) + x(4,8) + x(5,8) + x(6,8) + x(7,8)
             + x(8,9) + x(8,10) + x(8,11) + x(8,12) + x(8,13) + x(8,14)
             + x(8,15) + x(8,16)  = 2
 degree(9):  x(1,9) + x(2,9) + x(3,9) + x(4,9) + x(5,9) + x(6,9) + x(7,9)
             + x(8,9) + x(9,10) + x(9,11) + x(9,12) + x(9,13) + x(9,14)
             + x(9,15) + x(9,16)  = 2
 degree(10): x(1,10) + x(2,10) + x(3,10) + x(4,10) + x(5,10) + x(6,10)
             + x(7,10) + x(8,10) + x(9,10) + x(10,11) + x(10,12) + x(10,13)
             + x(10,14) + x(10,15) + x(10,16)  = 2
 degree(11): x(1,11) + x(2,11) + x(3,11) + x(4,11) + x(5,11) + x(6,11)
             + x(7,11) + x(8,11) + x(9,11) + x(10,11) + x(11,12) + x(11,13)
             + x(11,14) + x(11,15) + x(11,16)  = 2
 degree(12): x(1,12) + x(2,12) + x(3,12) + x(4,12) + x(5,12) + x(6,12)
             + x(7,12) + x(8,12) + x(9,12) + x(10,12) + x(11,12) + x(12,13)
             + x(12,14) + x(12,15) + x(12,16)  = 2
 degree(13): x(1,13) + x(2,13) + x(3,13) + x(4,13) + x(5,13) + x(6,13)
             + x(7,13) + x(8,13) + x(9,13) + x(10,13) + x(11,13) + x(12,13)
             + x(13,14) + x(13,15) + x(13,16)  = 2
 degree(14): x(1,14) + x(2,14) + x(3,14) + x(4,14) + x(5,14) + x(6,14)
             + x(7,14) + x(8,14) + x(9,14) + x(10,14) + x(11,14) + x(12,14)
             + x(13,14) + x(14,15) + x(14,16)  = 2
 degree(15): x(1,15) + x(2,15) + x(3,15) + x(4,15) + x(5,15) + x(6,15)
             + x(7,15) + x(8,15) + x(9,15) + x(10,15) + x(11,15) + x(12,15)
             + x(13,15) + x(14,15) + x(15,16)  = 2
 degree(16): x(1,16) + x(2,16) + x(3,16) + x(4,16) + x(5,16) + x(6,16)
             + x(7,16) + x(8,16) + x(9,16) + x(10,16) + x(11,16) + x(12,16)
             + x(13,16) + x(14,16) + x(15,16)  = 2
Bounds
 0 <= x(1,2) <= 1
 0 <= x(1,3) <= 1
 0 <= x(1,4) <= 1
 0 <= x(1,5) <= 1
 0 <= x(1,6) <= 1
 0 <= x(1,7) <= 1
 0 <= x(1,8) <= 1
 0 <= x(1,9) <= 1
 0 <= x(1,10) <= 1
 0 <= x(1,11) <= 1
 0 <= x(1,12) <= 1
 0 <= x(1,13) <= 1
 0 <= x(1,14) <= 1
 0 <= x(1,15) <= 1
 0 <= x(1,16) <= 1
 0 <= x(2,3) <= 1
 0 <= x(2,4) <= 1
 0 <= x(2,5) <= 1
 0 <= x(2,6) <= 1
 0 <= x(2,7) <= 1
 0 <= x(2,8) <= 1
 0 <= x(2,9) <= 1
 0 <= x(2,10) <= 1
 0 <= x(2,11) <= 1
 0 <= x(2,12) <= 1
 0 <= x(2,13) <= 1
 0 <= x(2,14) <= 1
 0 <= x(2,15) <= 1
 0 <= x(2,16) <= 1
 0 <= x(3,4) <= 1
 0 <= x(3,5) <= 1
 0 <= x(3,6) <= 1
 0 <= x(3,7) <= 1
 0 <= x(3,8) <= 1
 0 <= x(3,9) <= 1
 0 <= x(3,10) <= 1
 0 <= x(3,11) <= 1
 0 <= x(3,12) <= 1
 0 <= x(3,13) <= 1
 0 <= x(3,14) <= 1
 0 <= x(3,15) <= 1
 0 <= x(3,16) <= 1
 0 <= x(4,5) <= 1
 0 <= x(4,6) <= 1
 0 <= x(4,7) <= 1
 0 <= x(4,8) <= 1
 0 <= x(4,9) <= 1
 0 <= x(4,10) <= 1
 0 <= x(4,11) <= 1
 0 <= x(4,12) <= 1
 0 <= x(4,13) <= 1
 0 <= x(4,14) <= 1
 0 <= x(4,15) <= 1
 0 <= x(4,16) <= 1
 0 <= x(5,6) <= 1
 0 <= x(5,7) <= 1
 0 <= x(5,8) <= 1
 0 <= x(5,9) <= 1
 0 <= x(5,10) <= 1
 0 <= x(5,11) <= 1
 0 <= x(5,12) <= 1
 0 <= x(5,13) <= 1
 0 <= x(5,14) <= 1
 0 <= x(5,15) <= 1
 0 <= x(5,16) <= 1
 0 <= x(6,7) <= 1
 0 <= x(6,8) <= 1
 0 <= x(6,9) <= 1
 0 <= x(6,10) <= 1
 0 <= x(6,11) <= 1
 0 <= x(6,12) <= 1
 0 <= x(6,13) <= 1
 0 <= x(6,14) <= 1
 0 <= x(6,15) <= 1
 0 <= x(6,16) <= 1
 0 <= x(7,8) <= 1
 0 <= x(7,9) <= 1
 0 <= x(7,10) <= 1
 0 <= x(7,11) <= 1
 0 <= x(7,12) <= 1
 0 <= x(7,13) <= 1
 0 <= x(7,14) <= 1
 0 <= x(7,15) <= 1
 0 <= x(7,16) <= 1
 0 <= x(8,9) <= 1
 0 <= x(8,10) <= 1
 0 <= x(8,11) <= 1
 0 <= x(8,12) <= 1
 0 <= x(8,13) <= 1
 0 <= x(8,14) <= 1
 0 <= x(8,15) <= 1
 0 <= x(8,16) <= 1
 0 <= x(9,10) <= 1
 0 <= x(9,11) <= 1
 0 <= x(9,12) <= 1
 0 <= x(9,13) <= 1
 0 <= x(9,14) <= 1
 0 <= x(9,15) <= 1
 0 <= x(9,16) <= 1
 0 <= x(10,11) <= 1
 0 <= x(10,12) <= 1
 0 <= x(10,13) <= 1
 0 <= x(10,14) <= 1
 0 <= x(10,15) <= 1
 0 <= x(10,16) <= 1
 0 <= x(11,12) <= 1
 0 <= x(11,13) <= 1
 0 <= x(11,14) <= 1
 0 <= x(11,15) <= 1
 0 <= x(11,16) <= 1
 0 <= x(12,13) <= 1
 0 <= x(12,14) <= 1
 0 <= x(12,15) <= 1
 0 <= x(12,16) <= 1
 0 <= x(13,14) <= 1
 0 <= x(13,15) <= 1
 0 <= x(13,16) <= 1
 0 <= x(14,15) <= 1
 0 <= x(14,16) <= 1
 0 <= x(15,16) <= 1
Binaries
 x(1,2)  x(1,3)  x(1,4)  x(1,5)  x(1,6)  x(1,7)  x(1,8)  x(1,9)  x(1,10) 
 x(1,11)  x(1,12)  x(1,13)  x(1,14)  x(1,15)  x(1,16)  x(2,3)  x(2,4)  x(2,5) 
 x(2,6)  x(2,7)  x(2,8)  x(2,9)  x(2,10)  x(2,11)  x(2,12)  x(2,13)  x(2,14) 
 x(2,15)  x(2,16)  x(3,4)  x(3,5)  x(3,6)  x(3,7)  x(3,8)  x(3,9)  x(3,10) 
 x(3,11)  x(3,12)  x(3,13)  x(3,14)  x(3,15)  x(3,16)  x(4,5)  x(4,6)  x(4,7) 
 x(4,8)  x(4,9)  x(4,10)  x(4,11)  x(4,12)  x(4,13)  x(4,14)  x(4,15)  x(4,16) 
 x(5,6)  x(5,7)  x(5,8)  x(5,9)  x(5,10)  x(5,11)  x(5,12)  x(5,13)  x(5,14) 
 x(5,15)  x(5,16)  x(6,7)  x(6,8)  x(6,9)  x(6,10)  x(6,11)  x(6,12)  x(6,13) 
 x(6,14)  x(6,15)  x(6,16)  x(7,8)  x(7,9)  x(7,10)  x(7,11)  x(7,12)  x(7,13) 
 x(7,14)  x(7,15)  x(7,16)  x(8,9)  x(8,10)  x(8,11)  x(8,12)  x(8,13) 
 x(8,14)  x(8,15)  x(8,16)  x(9,10)  x(9,11)  x(9,12)  x(9,13)  x(9,14) 
 x(9,15)  x(9,16)  x(10,11)  x(10,12)  x(10,13)  x(10,14)  x(10,15)  x(10,16) 
 x(11,12)  x(11,13)  x(11,14)  x(11,15)  x(11,16)  x(12,13)  x(12,14) 
 x(12,15)  x(12,16)  x(13,14)  x(13,15)  x(13,16)  x(14,15)  x(14,16) 
 x(15,16) 
End
